Route #1: 1 1 23 10 16 9 7 20 29 17 3 1 
Route #2: 1 12 34 24 14 22 30 15 2 32 13 1 
Route #3: 1 19 11 5 4 27 1 
Route #4: 1 21 25 8 33 18 26 1 
Route #5: 1 31 6 28 1 

Cost 1128.14
Time 0.1568


 * Another infos *

 Iterations: 35 Time: 0.1568 sec - 0.0026 min - 0.0000 horas
0.0000 h 0.0026 min
Problem dimension: 35
